p cnf 204 1157
88 110 165 0
58 130 137 0
56 89 96 0
99 122 170 0
78 140 141 174 0
86 91 103 131 143 0
107 116 145 153 154 0
76 125 156 0
72 138 0
68 81 105 115 0
65 66 111 0
57 95 128 0
55 90 189 0
53 102 146 0
52 85 108 0
62 193 0
50 148 150 0
70 74 97 117 157 0
73 127 158 159 160 0
161 162 163 0
60 166 167 0
82 100 169 0
80 142 172 173 0
54 133 175 176 0
87 177 0
93 179 181 0
51 77 119 0
183 184 0
186 187 0
101 190 191 0
84 147 155 0
63 135 192 194 0
94 151 195 196 197 0
98 120 198 199 0
126 200 0
188 201 202 0
69 203 0
113 164 0
123 168 204 0
79 121 171 0
49 106 144 152 0
46 47 48 0
44 118 180 0
43 75 0
41 42 71 124 0
38 39 40 182 0
35 37 104 0
34 83 0
61 134 0
-56 -78 0
-56 -131 0
-56 -145 0
-78 -131 0
-78 -145 0
-131 -145 0
-85 -150 0
-85 -117 0
-85 -127 0
-117 -150 0
-127 -150 0
-117 -127 0
-51 -179 0
-33 -179 0
-31 -179 0
-33 -51 0
-31 -51 0
-31 -33 0
-30 -190 0
-190 -195 0
-190 -198 0
-30 -195 0
-30 -198 0
-195 -198 0
-201 -203 0
-164 -201 0
-59 -201 0
-164 -203 0
-59 -203 0
-59 -164 0
-48 -49 0
-44 -49 0
-49 -124 0
-44 -48 0
-48 -124 0
-44 -124 0
-179 -190 0
-179 -201 0
-49 -179 0
-190 -201 0
-49 -190 0
-49 -201 0
-30 -51 0
-51 -203 0
-48 -51 0
-30 -203 0
-30 -48 0
-48 -203 0
-56 -85 0
-56 -164 0
-44 -56 0
-85 -164 0
-44 -85 0
-44 -164 0
-78 -150 0
-59 -78 0
-78 -124 0
-59 -150 0
-124 -150 0
-59 -124 0
-117 -131 0
-33 -131 0
-131 -195 0
-33 -117 0
-117 -195 0
-33 -195 0
-127 -145 0
-31 -145 0
-145 -198 0
-31 -127 0
-127 -198 0
-31 -198 0
-29 -66 0
-29 -128 0
-29 -55 0
-66 -128 0
-55 -66 0
-55 -128 0
-62 -97 0
-62 -158 0
-28 -62 0
-97 -158 0
-28 -97 0
-28 -158 0
-112 -161 0
-161 -172 0
-161 -175 0
-87 -161 0
-112 -172 0
-112 -175 0
-87 -112 0
-172 -175 0
-87 -172 0
-87 -175 0
-93 -119 0
-27 -93 0
-67 -93 0
-64 -93 0
-27 -119 0
-67 -119 0
-64 -119 0
-27 -67 0
-27 -64 0
-64 -67 0
-47 -144 0
-144 -182 0
-144 -185 0
-37 -144 0
-47 -182 0
-47 -185 0
-37 -47 0
-182 -185 0
-37 -182 0
-37 -185 0
-22 -24 0
-24 -83 0
-24 -134 0
-24 -149 0
-22 -83 0
-22 -134 0
-22 -149 0
-83 -134 0
-83 -149 0
-134 -149 0
-93 -161 0
-144 -161 0
-24 -161 0
-93 -144 0
-24 -93 0
-24 -144 0
-112 -119 0
-47 -112 0
-22 -112 0
-47 -119 0
-22 -119 0
-22 -47 0
-29 -62 0
-66 -97 0
-66 -172 0
-27 -66 0
-66 -182 0
-66 -83 0
-97 -172 0
-27 -97 0
-97 -182 0
-83 -97 0
-27 -172 0
-172 -182 0
-83 -172 0
-27 -182 0
-27 -83 0
-83 -182 0
-128 -158 0
-128 -175 0
-67 -128 0
-128 -185 0
-128 -134 0
-158 -175 0
-67 -158 0
-158 -185 0
-134 -158 0
-67 -175 0
-175 -185 0
-134 -175 0
-67 -185 0
-67 -134 0
-134 -185 0
-28 -55 0
-55 -87 0
-55 -64 0
-37 -55 0
-55 -149 0
-28 -87 0
-28 -64 0
-28 -37 0
-28 -149 0
-64 -87 0
-37 -87 0
-87 -149 0
-37 -64 0
-64 -149 0
-37 -149 0
-58 -110 0
-110 -141 0
-58 -141 0
-72 -76 0
-76 -115 0
-72 -115 0
-21 -162 0
-80 -162 0
-133 -162 0
-21 -80 0
-21 -133 0
-80 -133 0
-20 -191 0
-94 -191 0
-120 -191 0
-20 -94 0
-20 -120 0
-94 -120 0
-34 -61 0
-76 -110 0
-110 -162 0
-110 -191 0
-76 -162 0
-76 -191 0
-162 -191 0
-58 -72 0
-21 -58 0
-20 -58 0
-21 -72 0
-20 -72 0
-20 -21 0
-115 -141 0
-80 -94 0
-34 -80 0
-34 -94 0
-120 -133 0
-61 -133 0
-61 -120 0
-88 -96 0
-88 -122 0
-88 -140 0
-88 -143 0
-88 -153 0
-96 -122 0
-96 -140 0
-96 -143 0
-96 -153 0
-122 -140 0
-122 -143 0
-122 -153 0
-140 -143 0
-140 -153 0
-143 -153 0
-19 -156 0
-18 -156 0
-105 -156 0
-111 -156 0
-57 -156 0
-18 -19 0
-19 -105 0
-19 -111 0
-19 -57 0
-18 -105 0
-18 -111 0
-18 -57 0
-105 -111 0
-57 -105 0
-57 -111 0
-16 -52 0
-16 -193 0
-16 -148 0
-16 -70 0
-16 -73 0
-52 -193 0
-52 -148 0
-52 -70 0
-52 -73 0
-148 -193 0
-70 -193 0
-73 -193 0
-70 -148 0
-73 -148 0
-70 -73 0
-129 -166 0
-166 -169 0
-166 -173 0
-166 -176 0
-129 -169 0
-129 -173 0
-129 -176 0
-169 -173 0
-169 -176 0
-173 -176 0
-15 -147 0
-15 -63 0
-15 -196 0
-15 -98 0
-63 -147 0
-147 -196 0
-98 -147 0
-63 -196 0
-63 -98 0
-98 -196 0
-75 -180 0
-71 -180 0
-71 -75 0
-88 -156 0
-16 -88 0
-16 -156 0
-19 -96 0
-52 -96 0
-96 -166 0
-15 -96 0
-96 -180 0
-19 -52 0
-19 -166 0
-15 -19 0
-19 -180 0
-52 -166 0
-15 -52 0
-52 -180 0
-15 -166 0
-166 -180 0
-15 -180 0
-18 -122 0
-122 -193 0
-122 -129 0
-122 -147 0
-75 -122 0
-18 -193 0
-18 -129 0
-18 -147 0
-18 -75 0
-129 -193 0
-147 -193 0
-75 -193 0
-129 -147 0
-75 -129 0
-75 -147 0
-105 -140 0
-140 -148 0
-140 -169 0
-63 -140 0
-71 -140 0
-105 -148 0
-105 -169 0
-63 -105 0
-71 -105 0
-148 -169 0
-63 -148 0
-71 -148 0
-63 -169 0
-71 -169 0
-63 -71 0
-111 -143 0
-70 -143 0
-143 -173 0
-143 -196 0
-70 -111 0
-111 -173 0
-111 -196 0
-70 -173 0
-70 -196 0
-173 -196 0
-57 -153 0
-73 -153 0
-153 -176 0
-98 -153 0
-57 -73 0
-57 -176 0
-57 -98 0
-73 -176 0
-73 -98 0
-98 -176 0
-89 -99 0
-89 -154 0
-89 -178 0
-99 -154 0
-99 -178 0
-154 -178 0
-13 -32 0
-13 -95 0
-13 -189 0
-32 -95 0
-32 -189 0
-95 -189 0
-12 -60 0
-121 -202 0
-139 -202 0
-121 -139 0
-17 -152 0
-104 -152 0
-17 -104 0
-152 -202 0
-13 -89 0
-60 -89 0
-13 -60 0
-32 -99 0
-12 -99 0
-12 -32 0
-95 -154 0
-121 -154 0
-17 -154 0
-95 -121 0
-17 -95 0
-17 -121 0
-178 -189 0
-139 -178 0
-104 -178 0
-139 -189 0
-104 -189 0
-104 -139 0
-170 -174 0
-86 -170 0
-92 -170 0
-86 -174 0
-92 -174 0
-86 -92 0
-26 -68 0
-26 -65 0
-26 -90 0
-65 -68 0
-68 -90 0
-65 -90 0
-183 -186 0
-36 -183 0
-23 -183 0
-36 -186 0
-23 -186 0
-23 -36 0
-84 -135 0
-84 -151 0
-84 -126 0
-135 -151 0
-126 -135 0
-126 -151 0
-26 -170 0
-170 -183 0
-84 -170 0
-26 -183 0
-26 -84 0
-84 -183 0
-68 -174 0
-174 -186 0
-135 -174 0
-68 -186 0
-68 -135 0
-135 -186 0
-65 -86 0
-36 -86 0
-86 -151 0
-36 -65 0
-65 -151 0
-36 -151 0
-90 -92 0
-23 -92 0
-92 -126 0
-23 -90 0
-90 -126 0
-23 -126 0
-91 -137 0
-116 -137 0
-91 -116 0
-53 -74 0
-53 -159 0
-74 -159 0
-100 -167 0
-11 -113 0
-113 -204 0
-113 -171 0
-11 -204 0
-11 -171 0
-171 -204 0
-42 -118 0
-40 -118 0
-25 -118 0
-40 -42 0
-25 -42 0
-25 -40 0
-53 -137 0
-113 -167 0
-118 -167 0
-113 -118 0
-11 -100 0
-42 -100 0
-11 -42 0
-74 -91 0
-91 -204 0
-40 -91 0
-74 -204 0
-40 -74 0
-40 -204 0
-116 -159 0
-116 -171 0
-25 -116 0
-159 -171 0
-25 -159 0
-25 -171 0
-130 -165 0
-103 -165 0
-107 -165 0
-45 -165 0
-103 -130 0
-107 -130 0
-45 -130 0
-103 -107 0
-45 -103 0
-45 -107 0
-14 -146 0
-14 -157 0
-14 -160 0
-10 -14 0
-146 -157 0
-146 -160 0
-10 -146 0
-157 -160 0
-10 -157 0
-10 -160 0
-109 -163 0
-9 -163 0
-82 -163 0
-142 -163 0
-54 -163 0
-163 -177 0
-9 -109 0
-82 -109 0
-109 -142 0
-54 -109 0
-109 -177 0
-9 -82 0
-9 -142 0
-9 -54 0
-9 -177 0
-82 -142 0
-54 -82 0
-82 -177 0
-54 -142 0
-142 -177 0
-54 -177 0
-77 -181 0
-181 -184 0
-181 -187 0
-114 -181 0
-8 -181 0
-7 -181 0
-77 -184 0
-77 -187 0
-77 -114 0
-8 -77 0
-7 -77 0
-184 -187 0
-114 -184 0
-8 -184 0
-7 -184 0
-114 -187 0
-8 -187 0
-7 -187 0
-8 -114 0
-7 -114 0
-7 -8 0
-6 -101 0
-101 -155 0
-101 -192 0
-101 -197 0
-101 -199 0
-101 -200 0
-6 -155 0
-6 -192 0
-6 -197 0
-6 -199 0
-6 -200 0
-155 -192 0
-155 -197 0
-155 -199 0
-155 -200 0
-192 -197 0
-192 -199 0
-192 -200 0
-197 -199 0
-197 -200 0
-199 -200 0
-5 -136 0
-5 -123 0
-5 -79 0
-5 -132 0
-123 -136 0
-79 -136 0
-132 -136 0
-79 -123 0
-123 -132 0
-79 -132 0
-41 -43 0
-39 -43 0
-4 -43 0
-35 -43 0
-39 -41 0
-4 -41 0
-35 -41 0
-4 -39 0
-35 -39 0
-4 -35 0
-14 -165 0
-163 -165 0
-165 -181 0
-101 -165 0
-14 -163 0
-14 -181 0
-14 -101 0
-163 -181 0
-101 -163 0
-101 -181 0
-130 -146 0
-109 -130 0
-77 -130 0
-6 -130 0
-109 -146 0
-77 -146 0
-6 -146 0
-77 -109 0
-6 -109 0
-6 -77 0
-9 -184 0
-9 -155 0
-5 -9 0
-9 -43 0
-155 -184 0
-5 -184 0
-43 -184 0
-5 -155 0
-43 -155 0
-5 -43 0
-82 -187 0
-82 -192 0
-82 -136 0
-41 -82 0
-187 -192 0
-136 -187 0
-41 -187 0
-136 -192 0
-41 -192 0
-41 -136 0
-103 -157 0
-103 -142 0
-103 -114 0
-103 -197 0
-103 -123 0
-39 -103 0
-142 -157 0
-114 -157 0
-157 -197 0
-123 -157 0
-39 -157 0
-114 -142 0
-142 -197 0
-123 -142 0
-39 -142 0
-114 -197 0
-114 -123 0
-39 -114 0
-123 -197 0
-39 -197 0
-39 -123 0
-107 -160 0
-54 -107 0
-8 -107 0
-107 -199 0
-79 -107 0
-4 -107 0
-54 -160 0
-8 -160 0
-160 -199 0
-79 -160 0
-4 -160 0
-8 -54 0
-54 -199 0
-54 -79 0
-4 -54 0
-8 -199 0
-8 -79 0
-4 -8 0
-79 -199 0
-4 -199 0
-4 -79 0
-10 -45 0
-45 -177 0
-7 -45 0
-45 -200 0
-45 -132 0
-35 -45 0
-10 -177 0
-7 -10 0
-10 -200 0
-10 -132 0
-10 -35 0
-7 -177 0
-177 -200 0
-132 -177 0
-35 -177 0
-7 -200 0
-7 -132 0
-7 -35 0
-132 -200 0
-35 -200 0
-35 -132 0
-125 -138 0
-3 -125 0
-81 -125 0
-3 -138 0
-81 -138 0
-3 -81 0
-2 -102 0
-2 -108 0
-2 -50 0
-102 -108 0
-50 -102 0
-50 -108 0
-1 -194 0
-69 -188 0
-168 -188 0
-69 -168 0
-46 -106 0
-38 -106 0
-38 -46 0
-2 -125 0
-125 -188 0
-106 -125 0
-2 -188 0
-2 -106 0
-106 -188 0
-102 -138 0
-69 -138 0
-46 -138 0
-69 -102 0
-46 -102 0
-46 -69 0
-3 -108 0
-1 -3 0
-1 -108 0
-50 -81 0
-81 -194 0
-50 -194 0
-38 -168 0
-58 -110 0
-76 -110 0
-72 -110 0
-58 -76 0
-58 -72 0
-72 -76 0
-88 -156 0
-16 -88 0
-16 -156 0
-53 -137 0
-130 -165 0
-14 -165 0
-146 -165 0
-14 -130 0
-130 -146 0
-14 -146 0
-125 -138 0
-2 -125 0
-102 -125 0
-2 -138 0
-102 -138 0
-2 -102 0
-56 -78 0
-56 -85 0
-56 -150 0
-78 -85 0
-78 -150 0
-85 -150 0
-29 -62 0
-115 -141 0
-96 -122 0
-96 -140 0
-19 -96 0
-18 -96 0
-96 -105 0
-52 -96 0
-96 -193 0
-96 -148 0
-122 -140 0
-19 -122 0
-18 -122 0
-105 -122 0
-52 -122 0
-122 -193 0
-122 -148 0
-19 -140 0
-18 -140 0
-105 -140 0
-52 -140 0
-140 -193 0
-140 -148 0
-18 -19 0
-19 -105 0
-19 -52 0
-19 -193 0
-19 -148 0
-18 -105 0
-18 -52 0
-18 -193 0
-18 -148 0
-52 -105 0
-105 -193 0
-105 -148 0
-52 -193 0
-52 -148 0
-148 -193 0
-89 -99 0
-13 -89 0
-32 -89 0
-13 -99 0
-32 -99 0
-13 -32 0
-170 -174 0
-26 -170 0
-68 -170 0
-26 -174 0
-68 -174 0
-26 -68 0
-3 -81 0
-3 -108 0
-3 -50 0
-81 -108 0
-50 -81 0
-50 -108 0
-131 -145 0
-117 -131 0
-127 -131 0
-117 -145 0
-127 -145 0
-117 -127 0
-66 -128 0
-55 -66 0
-66 -97 0
-66 -158 0
-28 -66 0
-55 -128 0
-97 -128 0
-128 -158 0
-28 -128 0
-55 -97 0
-55 -158 0
-28 -55 0
-97 -158 0
-28 -97 0
-28 -158 0
-143 -153 0
-111 -143 0
-57 -143 0
-70 -143 0
-73 -143 0
-111 -153 0
-57 -153 0
-70 -153 0
-73 -153 0
-57 -111 0
-70 -111 0
-73 -111 0
-57 -70 0
-57 -73 0
-70 -73 0
-154 -178 0
-95 -154 0
-154 -189 0
-95 -178 0
-178 -189 0
-95 -189 0
-86 -92 0
-65 -86 0
-86 -90 0
-65 -92 0
-90 -92 0
-65 -90 0
-91 -116 0
-74 -91 0
-91 -159 0
-74 -116 0
-116 -159 0
-74 -159 0
-103 -107 0
-45 -103 0
-103 -157 0
-103 -160 0
-10 -103 0
-45 -107 0
-107 -157 0
-107 -160 0
-10 -107 0
-45 -157 0
-45 -160 0
-10 -45 0
-157 -160 0
-10 -157 0
-10 -160 0
-51 -179 0
-179 -190 0
-30 -179 0
-51 -190 0
-30 -51 0
-30 -190 0
-112 -161 0
-93 -161 0
-119 -161 0
-93 -112 0
-112 -119 0
-93 -119 0
-21 -162 0
-162 -191 0
-20 -162 0
-21 -191 0
-20 -21 0
-20 -191 0
-109 -163 0
-163 -181 0
-77 -163 0
-101 -163 0
-6 -163 0
-109 -181 0
-77 -109 0
-101 -109 0
-6 -109 0
-77 -181 0
-101 -181 0
-6 -181 0
-77 -101 0
-6 -77 0
-6 -101 0
-129 -166 0
-166 -169 0
-15 -166 0
-147 -166 0
-63 -166 0
-129 -169 0
-15 -129 0
-129 -147 0
-63 -129 0
-15 -169 0
-147 -169 0
-63 -169 0
-15 -147 0
-15 -63 0
-63 -147 0
-12 -60 0
-183 -186 0
-84 -183 0
-135 -183 0
-84 -186 0
-135 -186 0
-84 -135 0
-100 -167 0
-9 -82 0
-9 -184 0
-9 -187 0
-9 -155 0
-9 -192 0
-82 -184 0
-82 -187 0
-82 -155 0
-82 -192 0
-184 -187 0
-155 -184 0
-184 -192 0
-155 -187 0
-187 -192 0
-155 -192 0
-1 -194 0
-31 -33 0
-33 -195 0
-33 -198 0
-31 -195 0
-31 -198 0
-195 -198 0
-172 -175 0
-87 -172 0
-27 -172 0
-67 -172 0
-64 -172 0
-87 -175 0
-27 -175 0
-67 -175 0
-64 -175 0
-27 -87 0
-67 -87 0
-64 -87 0
-27 -67 0
-27 -64 0
-64 -67 0
-80 -133 0
-80 -94 0
-80 -120 0
-94 -133 0
-120 -133 0
-94 -120 0
-173 -176 0
-173 -196 0
-98 -173 0
-176 -196 0
-98 -176 0
-98 -196 0
-23 -36 0
-36 -151 0
-36 -126 0
-23 -151 0
-23 -126 0
-126 -151 0
-54 -142 0
-142 -177 0
-114 -142 0
-8 -142 0
-7 -142 0
-142 -197 0
-142 -199 0
-142 -200 0
-54 -177 0
-54 -114 0
-8 -54 0
-7 -54 0
-54 -197 0
-54 -199 0
-54 -200 0
-114 -177 0
-8 -177 0
-7 -177 0
-177 -197 0
-177 -199 0
-177 -200 0
-8 -114 0
-7 -114 0
-114 -197 0
-114 -199 0
-114 -200 0
-7 -8 0
-8 -197 0
-8 -199 0
-8 -200 0
-7 -197 0
-7 -199 0
-7 -200 0
-197 -199 0
-197 -200 0
-199 -200 0
-201 -203 0
-49 -201 0
-48 -201 0
-49 -203 0
-48 -203 0
-48 -49 0
-47 -144 0
-24 -144 0
-22 -144 0
-24 -47 0
-22 -47 0
-22 -24 0
-152 -202 0
-69 -188 0
-106 -188 0
-46 -188 0
-69 -106 0
-46 -69 0
-46 -106 0
-59 -164 0
-44 -164 0
-124 -164 0
-44 -59 0
-59 -124 0
-44 -124 0
-75 -180 0
-71 -180 0
-71 -75 0
-11 -113 0
-113 -118 0
-42 -113 0
-11 -118 0
-11 -42 0
-42 -118 0
-5 -136 0
-5 -43 0
-5 -41 0
-43 -136 0
-41 -136 0
-41 -43 0
-182 -185 0
-37 -182 0
-83 -182 0
-134 -182 0
-149 -182 0
-37 -185 0
-83 -185 0
-134 -185 0
-149 -185 0
-37 -83 0
-37 -134 0
-37 -149 0
-83 -134 0
-83 -149 0
-134 -149 0
-34 -61 0
-121 -139 0
-17 -121 0
-104 -121 0
-17 -139 0
-104 -139 0
-17 -104 0
-171 -204 0
-40 -204 0
-25 -204 0
-40 -171 0
-25 -171 0
-25 -40 0
-79 -123 0
-123 -132 0
-39 -123 0
-4 -123 0
-35 -123 0
-79 -132 0
-39 -79 0
-4 -79 0
-35 -79 0
-39 -132 0
-4 -132 0
-35 -132 0
-4 -39 0
-35 -39 0
-4 -35 0
-38 -168 0
